1 5 30
4989
  4.8  0.07  49.2 12520.0   0.0
 0.05 15024.1  16.6
 0.05 14048.7  15.6
 0.07 20116.5  22.3
 0.06 16757.6  18.6
 0.06 19521.8  21.6
 1496
  599
 1317
  870
 1014
  983
 1430
  575
  727
  967
  715
  817
  687
 1385
 1408
  902
 1187
 1211
  724
  959
  996
 1483
  594
 1456
 1180
  842
  922
 1292
 1322
 1037
